p cnf 12 50 
3 -11 -5 0
7 3 12 0
-2 -12 -3 0
2 -6 8 0
1 -3 2 0
2 6 -12 0
-1 12 3 0
-4 8 3 0
7 1 12 0
-2 5 -1 0
-7 -3 -9 0
-4 -11 8 0
12 -9 -4 0
10 6 -12 0
8 3 -10 0
11 -12 5 0
3 -4 2 0
-7 -2 -4 0
3 5 12 0
-2 9 -4 0
6 9 -2 0
-1 -6 10 0
3 4 -9 0
3 -11 6 0
-4 -1 2 0
-3 11 -9 0
-3 -5 7 0
6 -10 12 0
-7 4 -2 0
-5 9 -2 0
10 -9 -4 0
-6 -4 -10 0
-1 7 3 0
6 -5 3 0
-6 -8 -7 0
-5 6 2 0
-7 -2 9 0
-2 4 11 0
-8 4 -11 0
11 1 8 0
1 5 11 0
8 9 -3 0
-5 8 7 0
-12 -1 10 0
-12 -10 8 0
4 -9 3 0
12 -7 -2 0
7 3 2 0
1 9 -2 0
-10 -12 -9 0
